benchmarks/VRPTW/TSPTW/solution/n40w100.001.txt.solution
1 35 6 17 27 2 28 19 33 21 22 32 20 34 14 3 15 9 23 10 12 38 37 4 26 16 31 5 13 36 40 25 30 18 24 39 7 11 41 8 29 
429
